Gurobi Optimizer version 9.1.2 build v9.1.2rc0 (linux64)
Thread count: 36 physical cores, 72 logical processors, using up to 32 threads
Optimize a model with 12 rows, 57 columns and 590 nonzeros
Model fingerprint: 0xf32eec78
Model has 47 quadratic constraints
Coefficient statistics:
  Matrix range     [2e-05, 3e+00]
  QMatrix range    [1e+00, 1e+00]
  QLMatrix range   [1e+00, 1e+00]
  Objective range  [8e-03, 7e-01]
  Bounds range     [1e+00, 1e+00]
  RHS range        [1e+00, 1e+00]
Presolve removed 9 rows and 0 columns

Continuous model is non-convex -- solving as a MIP.

Presolve removed 9 rows and 0 columns
Presolve time: 0.00s
Presolved: 189 rows, 57 columns, 443 nonzeros
Presolved model has 47 bilinear constraint(s)
Variable types: 57 continuous, 0 integer (0 binary)

Root relaxation: objective -1.743721e+00, 44 iterations, 0.00 seconds

    Nodes    |    Current Node    |     Objective Bounds      |     Work
 Expl Unexpl |  Obj  Depth IntInf | Incumbent    BestBd   Gap | It/Node Time

     0     0   -1.74372    0   38          -   -1.74372      -     -    0s
H    0     0                       0.6147548   -1.74372   384%     -    0s
     0     0   -1.64739    0    1    0.61475   -1.64739   368%     -    0s
H    0     0                      -1.6450460   -1.64739  0.14%     -    0s
     0     0     cutoff    0        -1.64505   -1.64505  0.00%     -    0s

Cutting planes:
  RLT: 25
  BQP: 3

Explored 1 nodes (76 simplex iterations) in 0.01 seconds
Thread count was 32 (of 72 available processors)

Solution count 2: -1.64505 0.614755 
No other solutions better than -1.64505

Optimal solution found (tolerance 1.00e-04)
Best objective -1.645045978473e+00, best bound -1.645045978473e+00, gap 0.0000%

User-callback calls 78, time in user-callback 0.00 sec
Gurobi Optimizer version 9.1.2 build v9.1.2rc0 (linux64)
Thread count: 36 physical cores, 72 logical processors, using up to 32 threads
Optimize a model with 24 rows, 120 columns and 2480 nonzeros
Model fingerprint: 0x0082c7ab
Model has 100 quadratic constraints
Coefficient statistics:
  Matrix range     [8e-06, 4e+00]
  QMatrix range    [1e+00, 1e+00]
  QLMatrix range   [1e+00, 1e+00]
  Objective range  [6e-03, 1e+00]
  Bounds range     [1e+00, 1e+00]
  RHS range        [1e+00, 1e+00]
Presolve removed 17 rows and 0 columns

Continuous model is non-convex -- solving as a MIP.

Presolve removed 17 rows and 0 columns
Presolve time: 0.00s
Presolved: 407 rows, 120 columns, 1231 nonzeros
Presolved model has 100 bilinear constraint(s)
Variable types: 120 continuous, 0 integer (0 binary)

Root relaxation: objective -8.310774e+00, 136 iterations, 0.00 seconds

    Nodes    |    Current Node    |     Objective Bounds      |     Work
 Expl Unexpl |  Obj  Depth IntInf | Incumbent    BestBd   Gap | It/Node Time

     0     0   -8.31077    0  100          -   -8.31077      -     -    0s
H    0     0                       0.9233815   -8.31077  1000%     -    0s
     0     0   -5.92101    0   90    0.92338   -5.92101   741%     -    0s
H    0     0                       0.1842246   -5.92101  3314%     -    0s
     0     0   -5.23974    0  100    0.18422   -5.23974  2944%     -    0s
     0     0   -5.10100    0  100    0.18422   -5.10100  2869%     -    0s
     0     0   -4.87530    0  100    0.18422   -4.87530  2746%     -    0s
H    0     0                      -0.2283694   -4.87530  2035%     -    0s
     0     0   -4.87259    0  100   -0.22837   -4.87259  2034%     -    0s
     0     0   -4.82194    0  100   -0.22837   -4.82194  2011%     -    0s
H    0     0                      -0.2887164   -4.82194  1570%     -    0s
     0     0   -4.81412    0  100   -0.28872   -4.81412  1567%     -    0s
     0     0   -4.80371    0  100   -0.28872   -4.80371  1564%     -    0s
     0     0   -4.80017    0  100   -0.28872   -4.80017  1563%     -    0s
     0     0   -4.79304    0  100   -0.28872   -4.79304  1560%     -    0s
     0     0   -4.79163    0  100   -0.28872   -4.79163  1560%     -    0s
     0     0   -4.78773    0  100   -0.28872   -4.78773  1558%     -    0s
H    0     0                      -0.3513060   -4.78773  1263%     -    0s
H    0     0                      -1.4332477   -4.78773   234%     -    0s
H    0     0                      -1.5433776   -4.78773   210%     -    0s
H    0     0                      -1.5538606   -4.78773   208%     -    0s
     0     2   -4.78773    0  100   -1.55386   -4.78773   208%     -    0s
* 1102  1254              41      -1.9545178   -4.26110   118%  25.3    0s
* 1181  1254              21      -3.3939501   -4.26110  25.5%  24.6    0s
* 1570  1436              26      -3.4007206   -4.19118  23.2%  22.9    0s
* 1865  1647              28      -3.6944200   -4.10448  11.1%  22.6    0s
* 1866  1647              28      -3.6944200   -4.10448  11.1%  22.6    0s
* 2375  1804              43      -3.9063619   -4.03832  3.38%  21.0    0s
* 2378  1804              41      -3.9066116   -4.03832  3.37%  21.0    0s
* 2650  1998              36      -3.9131236   -4.03434  3.10%  20.1    0s
* 2756  1998              25      -3.9146193   -4.03434  3.06%  19.7    0s
* 2901  1998              37      -3.9455751   -4.03434  2.25%  19.0    0s
* 4120     8              34      -3.9461113   -3.95440  0.21%  18.6    0s

Explored 4134 nodes (76975 simplex iterations) in 0.99 seconds
Thread count was 32 (of 72 available processors)

Solution count 10: -3.94611 -3.94558 -3.91462 ... -1.95452

Optimal solution found (tolerance 1.00e-04)
Best objective -3.946111313121e+00, best bound -3.946116788062e+00, gap 0.0001%

User-callback calls 8627, time in user-callback 0.00 sec



objective value: -3.94611131312115
objective bound: -3.946116788062434
x_opt: [0.0, 1.0, 1.0, 1.0, 1.0, 0.0, 0.0, 0.0, 0.2794978742128173, 1.0, 0.0, 0.22515607155294046, 1.0, 1.0, 1.0, 0.0, 0.0, 0.0, 0.05310076721327938, 0.49492078806578055]
GUROBI solution time: 0.9892921447753906




